100
1000
296
295
295
294
291
290
288
288
287
286
283
282
280
279
279
278
277
275
273
269
266
262
261
254
251
250
248
248
246
246
245
244
244
239
238
234
233
233
232
231
229
229
216
214
211
211
210
198
196
195
195
194
192
192
191
191
190
188
187
187
185
184
180
177
172
172
172
171
167
167
166
165
160
160
158
155
148
146
145
143
140
140
131
131
128
126
123
122
121
121
117
117
113
111
108
107
106
106
103
103
